c description: Random 3-CNF over 21 variables and 89 clauses
c generator: CNFgen (0.9.2)
c copyright: (C) 2012-2022 Massimo Lauria <massimo.lauria@uniroma1.it>
c url: https://massimolauria.net/cnfgen
c command line: cnfgen --output CNF_4.28/21_bit_89_564.cnf randkcnf 3 21 89
c
p cnf 21 89
7 -8 -21 0
3 8 -11 0
3 -7 -14 0
11 13 17 0
-12 13 -17 0
12 19 20 0
6 -11 -21 0
-6 8 12 0
-2 -3 -6 0
-6 17 20 0
4 -14 17 0
5 8 12 0
3 4 19 0
-7 18 -19 0
-7 12 17 0
4 10 18 0
12 -14 -15 0
5 -6 -15 0
2 -4 9 0
10 -17 -20 0
6 -8 -15 0
-3 14 19 0
8 11 -20 0
6 -8 20 0
7 12 14 0
11 15 21 0
1 6 -21 0
-3 4 13 0
7 -9 -18 0
-1 5 12 0
-5 -7 18 0
-5 15 -21 0
-8 13 19 0
8 9 20 0
-1 -6 12 0
-12 16 21 0
9 17 -20 0
-2 3 -18 0
-3 8 -21 0
-4 14 18 0
-15 20 21 0
5 14 -16 0
-4 -6 20 0
-1 16 -17 0
-9 -16 -18 0
-13 -15 -19 0
5 -8 -14 0
6 -13 -14 0
-7 -16 19 0
12 -18 19 0
-1 10 -15 0
-7 15 -16 0
-1 -9 -12 0
-8 9 -17 0
2 5 -21 0
6 -12 -21 0
-5 10 14 0
-2 8 -14 0
13 -15 21 0
-6 11 -13 0
-6 -8 -17 0
-4 -7 -17 0
2 6 -19 0
1 8 -14 0
-6 -10 11 0
11 -15 17 0
1 7 10 0
-11 -13 -17 0
3 -16 -17 0
-1 -16 -21 0
-13 18 21 0
2 18 -20 0
8 12 -20 0
-6 15 -21 0
6 -11 21 0
1 10 16 0
11 -20 21 0
9 13 18 0
-5 -7 12 0
5 7 10 0
-13 -20 -21 0
4 9 10 0
-5 -6 -14 0
-1 -8 16 0
17 -18 19 0
8 9 -10 0
-4 6 12 0
11 14 20 0
-7 -14 -15 0
